20190902 196600.00 179700.00
20180528 179700.00 179700.00
20170630 179701.35 53701.35
20170613 128358.11 36258.11
20170531 128358.11 36258.11
20170511 128358.11 36258.11
20160630 128358.11 21500.00
20160530 128358.11 21500.00
20160511 128358.11 13600.00
20151228 113600.00 13600.00
